50

94 5 291
92 25 282
89 10 268
89 4 352
87 6 339
82 14 360
82 9 288
81 9 280
80 4 343
80 12 336
78 23 242
71 12 235
70 16 325
67 2 286
66 5 217
63 11 283
58 18 275
52 1 295
50 2 293
48 3 300
46 3 199
36 2 192
34 11 334
33 5 352
31 7 295
30 7 335
27 4 177
26 1 329
21 6 286
21 6 246
20 2 337
19 2 326
18 4 335
18 5 254
17 1 269
12 4 192
11 4 77
11 3 337
11 4 356
11 4 216
10 2 118
10 3 151
7 1 213
7 1 308
7 1 98
6 1 24
5 2 182
5 2 278
4 1 293
3 1 228
